Carbon nanotube(2,2) in a box
11.86 ! universal scaling parameters
1.0000000 0.0000000 0.0000000 ! lattice vector a(1)
0.0000000 1.0000000 0.0000000 ! lattice vector a(2)
0.0000000 0.0000000 0.2074000 ! lattice vector a(3)
16 ! number of atoms
Direct ! positions in cartesian coordinates
0.739460 0.480341 0.000000
0.708803 0.594759 0.000000
0.672437 0.642145 0.500244
0.569857 0.701369 0.500244
0.510632 0.709169 0.000000
0.396214 0.678511 0.000000
0.348828 0.642145 0.500244
0.289604 0.539565 0.500244
0.281804 0.480341 0.000000
0.312462 0.365922 0.000000